p cnf 7230 16
3842 -4587 0
3842 -4591 0
4588 4589 0
3844 -4589 0
-3844 -4588 0
4586 4587 0
-3842 -4586 0
4584 4585 0
3840 -4585 0
-3840 -4584 0
4582 4583 0
3838 -4583 0
-3838 -4582 0
4580 4581 0
-4580 -4581 0
2832 -4591 0
